array [1..6] of int: X_INTRODUCED_28 = [1,2,3,4,5,6];
array [1..2] of int: X_INTRODUCED_103 = [1,-1];
array [1..2] of int: X_INTRODUCED_105 = [-1,1];
array [1..4] of int: X_INTRODUCED_187 = [1,-2,-3,-4];
array [1..4] of int: X_INTRODUCED_206 = [1,-3,-5,-6];
array [1..4] of int: X_INTRODUCED_222 = [1,-1,-4,-6];
array [1..4] of int: X_INTRODUCED_238 = [1,-1,-2,-5];
array [1..3] of int: X_INTRODUCED_240 = [-1,-1,1];
array [1..5] of int: X_INTRODUCED_250 = [1,-1,-1,-1,-1];
array [1..3] of int: X_INTRODUCED_257 = [1,-2,-1];
var 1..6: X_INTRODUCED_0;
var 1..6: X_INTRODUCED_1;
var 1..6: X_INTRODUCED_2;
var 1..6: X_INTRODUCED_3;
var 1..6: X_INTRODUCED_4;
var 1..6: X_INTRODUCED_5;
var 1..6: X_INTRODUCED_6;
var 1..6: X_INTRODUCED_7;
var 1..6: X_INTRODUCED_8;
var 1..6: X_INTRODUCED_9;
var 1..6: X_INTRODUCED_10;
var 1..6: X_INTRODUCED_11;
var 0..9: X_INTRODUCED_20:: is_defined_var;
var 0..14: X_INTRODUCED_21:: is_defined_var;
var 0..11: X_INTRODUCED_22:: is_defined_var;
var 0..8: X_INTRODUCED_23:: is_defined_var;
var bool: X_INTRODUCED_24:: is_defined_var;
var bool: X_INTRODUCED_25:: is_defined_var;
var 1..6: X_INTRODUCED_27 ::var_is_introduced :: is_defined_var;
var 1..6: X_INTRODUCED_30 ::var_is_introduced :: is_defined_var;
var 2..12: X_INTRODUCED_31 ::var_is_introduced :: is_defined_var;
var 1..6: X_INTRODUCED_33 ::var_is_introduced :: is_defined_var;
var 3..18: X_INTRODUCED_34 ::var_is_introduced :: is_defined_var;
var 1..6: X_INTRODUCED_36 ::var_is_introduced :: is_defined_var;
var 4..21: X_INTRODUCED_37 ::var_is_introduced :: is_defined_var;
var 1..6: X_INTRODUCED_39 ::var_is_introduced :: is_defined_var;
var 5..21: X_INTRODUCED_40 ::var_is_introduced :: is_defined_var;
var 1..6: X_INTRODUCED_42 ::var_is_introduced :: is_defined_var;
var 6..21: X_INTRODUCED_43 ::var_is_introduced :: is_defined_var;
var 0..21: X_INTRODUCED_45 ::var_is_introduced :: is_defined_var;
var 0..21: X_INTRODUCED_47 ::var_is_introduced :: is_defined_var;
var 0..21: X_INTRODUCED_49 ::var_is_introduced :: is_defined_var;
var 0..21: X_INTRODUCED_51 ::var_is_introduced :: is_defined_var;
var 2..7: X_INTRODUCED_53 ::var_is_introduced :: is_defined_var;
var 0..21: X_INTRODUCED_55 ::var_is_introduced :: is_defined_var;
var 2..7: X_INTRODUCED_56 ::var_is_introduced :: is_defined_var;
var 0..21: X_INTRODUCED_58 ::var_is_introduced :: is_defined_var;
var 2..7: X_INTRODUCED_59 ::var_is_introduced :: is_defined_var;
var 0..21: X_INTRODUCED_61 ::var_is_introduced :: is_defined_var;
var 2..7: X_INTRODUCED_62 ::var_is_introduced :: is_defined_var;
var 0..21: X_INTRODUCED_64 ::var_is_introduced :: is_defined_var;
var 42..84: cost:: output_var:: is_defined_var;
var bool: X_INTRODUCED_65 ::var_is_introduced :: is_defined_var;
var bool: X_INTRODUCED_66 ::var_is_introduced :: is_defined_var;
var bool: X_INTRODUCED_67 ::var_is_introduced :: is_defined_var;
var bool: X_INTRODUCED_68 ::var_is_introduced :: is_defined_var;
var bool: X_INTRODUCED_69 ::var_is_introduced :: is_defined_var;
var bool: X_INTRODUCED_70 ::var_is_introduced :: is_defined_var;
var bool: X_INTRODUCED_71 ::var_is_introduced :: is_defined_var;
var bool: X_INTRODUCED_72 ::var_is_introduced :: is_defined_var;
var bool: X_INTRODUCED_73 ::var_is_introduced :: is_defined_var;
var bool: X_INTRODUCED_74 ::var_is_introduced :: is_defined_var;
var bool: X_INTRODUCED_75 ::var_is_introduced :: is_defined_var;
var bool: X_INTRODUCED_76 ::var_is_introduced :: is_defined_var;
var bool: X_INTRODUCED_77 ::var_is_introduced :: is_defined_var;
var bool: X_INTRODUCED_78 ::var_is_introduced :: is_defined_var;
var bool: X_INTRODUCED_79 ::var_is_introduced :: is_defined_var;
var bool: X_INTRODUCED_80 ::var_is_introduced :: is_defined_var;
var bool: X_INTRODUCED_81 ::var_is_introduced :: is_defined_var;
var bool: X_INTRODUCED_82 ::var_is_introduced :: is_defined_var;
var bool: X_INTRODUCED_83 ::var_is_introduced :: is_defined_var;
var bool: X_INTRODUCED_84 ::var_is_introduced :: is_defined_var;
var bool: X_INTRODUCED_85 ::var_is_introduced :: is_defined_var;
var bool: X_INTRODUCED_86 ::var_is_introduced :: is_defined_var;
var bool: X_INTRODUCED_87 ::var_is_introduced :: is_defined_var;
var bool: X_INTRODUCED_88 ::var_is_introduced :: is_defined_var;
var bool: X_INTRODUCED_89 ::var_is_introduced :: is_defined_var;
var bool: X_INTRODUCED_90 ::var_is_introduced :: is_defined_var;
var bool: X_INTRODUCED_91 ::var_is_introduced :: is_defined_var;
var bool: X_INTRODUCED_92 ::var_is_introduced :: is_defined_var;
var bool: X_INTRODUCED_93 ::var_is_introduced :: is_defined_var;
var bool: X_INTRODUCED_94 ::var_is_introduced :: is_defined_var;
var bool: X_INTRODUCED_95 ::var_is_introduced :: is_defined_var;
var bool: X_INTRODUCED_96 ::var_is_introduced :: is_defined_var;
var bool: X_INTRODUCED_97 ::var_is_introduced :: is_defined_var;
var bool: X_INTRODUCED_98 ::var_is_introduced :: is_defined_var;
var bool: X_INTRODUCED_99 ::var_is_introduced :: is_defined_var;
var bool: X_INTRODUCED_100 ::var_is_introduced :: is_defined_var;
var 1..6: X_INTRODUCED_111 ::var_is_introduced ;
var 1..6: X_INTRODUCED_112 ::var_is_introduced ;
var 1..6: X_INTRODUCED_118 ::var_is_introduced ;
var 1..6: X_INTRODUCED_119 ::var_is_introduced ;
var 1..6: X_INTRODUCED_127 ::var_is_introduced ;
var 1..6: X_INTRODUCED_128 ::var_is_introduced ;
var 1..6: X_INTRODUCED_134 ::var_is_introduced ;
var 1..6: X_INTRODUCED_135 ::var_is_introduced ;
var 1..6: X_INTRODUCED_143 ::var_is_introduced ;
var 1..6: X_INTRODUCED_144 ::var_is_introduced ;
var 1..6: X_INTRODUCED_150 ::var_is_introduced ;
var 1..6: X_INTRODUCED_151 ::var_is_introduced ;
var 1..6: X_INTRODUCED_159 ::var_is_introduced ;
var 1..6: X_INTRODUCED_160 ::var_is_introduced ;
var 1..6: X_INTRODUCED_166 ::var_is_introduced ;
var 1..6: X_INTRODUCED_167 ::var_is_introduced ;
var bool: X_INTRODUCED_168 ::var_is_introduced :: is_defined_var;
var bool: X_INTRODUCED_169 ::var_is_introduced :: is_defined_var;
var bool: X_INTRODUCED_170 ::var_is_introduced :: is_defined_var;
var 0..1: X_INTRODUCED_171 ::var_is_introduced :: is_defined_var;
var bool: X_INTRODUCED_174 ::var_is_introduced :: is_defined_var;
var bool: X_INTRODUCED_175 ::var_is_introduced :: is_defined_var;
var bool: X_INTRODUCED_176 ::var_is_introduced :: is_defined_var;
var 0..1: X_INTRODUCED_177 ::var_is_introduced :: is_defined_var;
var bool: X_INTRODUCED_180 ::var_is_introduced :: is_defined_var;
var bool: X_INTRODUCED_181 ::var_is_introduced :: is_defined_var;
var bool: X_INTRODUCED_182 ::var_is_introduced :: is_defined_var;
var 0..1: X_INTRODUCED_183 ::var_is_introduced :: is_defined_var;
var bool: X_INTRODUCED_188 ::var_is_introduced :: is_defined_var;
var bool: X_INTRODUCED_189 ::var_is_introduced :: is_defined_var;
var bool: X_INTRODUCED_190 ::var_is_introduced :: is_defined_var;
var 0..1: X_INTRODUCED_191 ::var_is_introduced :: is_defined_var;
var bool: X_INTRODUCED_193 ::var_is_introduced :: is_defined_var;
var bool: X_INTRODUCED_194 ::var_is_introduced :: is_defined_var;
var bool: X_INTRODUCED_195 ::var_is_introduced :: is_defined_var;
var 0..1: X_INTRODUCED_196 ::var_is_introduced :: is_defined_var;
var bool: X_INTRODUCED_199 ::var_is_introduced :: is_defined_var;
var bool: X_INTRODUCED_200 ::var_is_introduced :: is_defined_var;
var bool: X_INTRODUCED_201 ::var_is_introduced :: is_defined_var;
var 0..1: X_INTRODUCED_202 ::var_is_introduced :: is_defined_var;
var bool: X_INTRODUCED_207 ::var_is_introduced :: is_defined_var;
var bool: X_INTRODUCED_208 ::var_is_introduced :: is_defined_var;
var bool: X_INTRODUCED_209 ::var_is_introduced :: is_defined_var;
var 0..1: X_INTRODUCED_210 ::var_is_introduced :: is_defined_var;
var bool: X_INTRODUCED_211 ::var_is_introduced :: is_defined_var;
var bool: X_INTRODUCED_212 ::var_is_introduced :: is_defined_var;
var bool: X_INTRODUCED_213 ::var_is_introduced :: is_defined_var;
var 0..1: X_INTRODUCED_214 ::var_is_introduced :: is_defined_var;
var bool: X_INTRODUCED_216 ::var_is_introduced :: is_defined_var;
var bool: X_INTRODUCED_217 ::var_is_introduced :: is_defined_var;
var bool: X_INTRODUCED_218 ::var_is_introduced :: is_defined_var;
var 0..1: X_INTRODUCED_219 ::var_is_introduced :: is_defined_var;
var bool: X_INTRODUCED_223 ::var_is_introduced :: is_defined_var;
var bool: X_INTRODUCED_224 ::var_is_introduced :: is_defined_var;
var bool: X_INTRODUCED_225 ::var_is_introduced :: is_defined_var;
var 0..1: X_INTRODUCED_226 ::var_is_introduced :: is_defined_var;
var bool: X_INTRODUCED_227 ::var_is_introduced :: is_defined_var;
var bool: X_INTRODUCED_228 ::var_is_introduced :: is_defined_var;
var bool: X_INTRODUCED_229 ::var_is_introduced :: is_defined_var;
var 0..1: X_INTRODUCED_230 ::var_is_introduced :: is_defined_var;
var bool: X_INTRODUCED_232 ::var_is_introduced :: is_defined_var;
var bool: X_INTRODUCED_233 ::var_is_introduced :: is_defined_var;
var bool: X_INTRODUCED_234 ::var_is_introduced :: is_defined_var;
var 0..1: X_INTRODUCED_235 ::var_is_introduced :: is_defined_var;
var 0..3: penSum:: output_var:: is_defined_var;
var bool: X_INTRODUCED_251 ::var_is_introduced :: is_defined_var;
var bool: X_INTRODUCED_252 ::var_is_introduced :: is_defined_var;
var 0..1: X_INTRODUCED_253 ::var_is_introduced :: is_defined_var;
var 0..1: X_INTRODUCED_255 ::var_is_introduced :: is_defined_var;
array [1..6] of var int: s:: output_array([1..6]) = [X_INTRODUCED_0,X_INTRODUCED_1,X_INTRODUCED_2,X_INTRODUCED_3,X_INTRODUCED_4,X_INTRODUCED_5];
array [1..6] of var int: slot:: output_array([1..6]) = [X_INTRODUCED_6,X_INTRODUCED_7,X_INTRODUCED_8,X_INTRODUCED_9,X_INTRODUCED_10,X_INTRODUCED_11];
array [1..4] of var int: firstSlot:: output_array([1..4]) = [X_INTRODUCED_119,X_INTRODUCED_135,X_INTRODUCED_151,X_INTRODUCED_167];
array [1..4] of var int: lastSlot:: output_array([1..4]) = [X_INTRODUCED_112,X_INTRODUCED_128,X_INTRODUCED_144,X_INTRODUCED_160];
array [1..4] of var int: wait:: output_array([1..4]) = [X_INTRODUCED_20,X_INTRODUCED_21,X_INTRODUCED_22,X_INTRODUCED_23];
array [1..7] of var int: cumDur = [0,X_INTRODUCED_27,X_INTRODUCED_31,X_INTRODUCED_34,X_INTRODUCED_37,X_INTRODUCED_40,X_INTRODUCED_43];
array [1..4] of var int: firstJob = [X_INTRODUCED_45,X_INTRODUCED_47,X_INTRODUCED_49,X_INTRODUCED_51];
array [1..4] of var int: lastJob = [X_INTRODUCED_55,X_INTRODUCED_58,X_INTRODUCED_61,X_INTRODUCED_64];
constraint array_int_element(X_INTRODUCED_0,X_INTRODUCED_28,X_INTRODUCED_27):: defines_var(X_INTRODUCED_27);
constraint array_int_element(X_INTRODUCED_1,X_INTRODUCED_28,X_INTRODUCED_30):: defines_var(X_INTRODUCED_30);
constraint array_int_element(X_INTRODUCED_2,X_INTRODUCED_28,X_INTRODUCED_33):: defines_var(X_INTRODUCED_33);
constraint array_int_element(X_INTRODUCED_3,X_INTRODUCED_28,X_INTRODUCED_36):: defines_var(X_INTRODUCED_36);
constraint array_int_element(X_INTRODUCED_4,X_INTRODUCED_28,X_INTRODUCED_39):: defines_var(X_INTRODUCED_39);
constraint array_int_element(X_INTRODUCED_5,X_INTRODUCED_28,X_INTRODUCED_42):: defines_var(X_INTRODUCED_42);
constraint array_var_int_element(X_INTRODUCED_119,cumDur,X_INTRODUCED_45):: defines_var(X_INTRODUCED_45);
constraint array_var_int_element(X_INTRODUCED_135,cumDur,X_INTRODUCED_47):: defines_var(X_INTRODUCED_47);
constraint array_var_int_element(X_INTRODUCED_151,cumDur,X_INTRODUCED_49):: defines_var(X_INTRODUCED_49);
constraint array_var_int_element(X_INTRODUCED_167,cumDur,X_INTRODUCED_51):: defines_var(X_INTRODUCED_51);
constraint array_var_int_element(X_INTRODUCED_53,cumDur,X_INTRODUCED_55):: defines_var(X_INTRODUCED_55);
constraint array_var_int_element(X_INTRODUCED_56,cumDur,X_INTRODUCED_58):: defines_var(X_INTRODUCED_58);
constraint array_var_int_element(X_INTRODUCED_59,cumDur,X_INTRODUCED_61):: defines_var(X_INTRODUCED_61);
constraint array_var_int_element(X_INTRODUCED_62,cumDur,X_INTRODUCED_64):: defines_var(X_INTRODUCED_64);
constraint int_le(cost,50000);
constraint int_eq_reif(X_INTRODUCED_6,1,X_INTRODUCED_65):: defines_var(X_INTRODUCED_65);
constraint int_eq_reif(X_INTRODUCED_7,1,X_INTRODUCED_66):: defines_var(X_INTRODUCED_66);
constraint int_eq_reif(X_INTRODUCED_8,1,X_INTRODUCED_67):: defines_var(X_INTRODUCED_67);
constraint int_eq_reif(X_INTRODUCED_9,1,X_INTRODUCED_68):: defines_var(X_INTRODUCED_68);
constraint int_eq_reif(X_INTRODUCED_10,1,X_INTRODUCED_69):: defines_var(X_INTRODUCED_69);
constraint int_eq_reif(X_INTRODUCED_11,1,X_INTRODUCED_70):: defines_var(X_INTRODUCED_70);
constraint int_eq_reif(X_INTRODUCED_6,2,X_INTRODUCED_71):: defines_var(X_INTRODUCED_71);
constraint int_eq_reif(X_INTRODUCED_7,2,X_INTRODUCED_72):: defines_var(X_INTRODUCED_72);
constraint int_eq_reif(X_INTRODUCED_8,2,X_INTRODUCED_73):: defines_var(X_INTRODUCED_73);
constraint int_eq_reif(X_INTRODUCED_9,2,X_INTRODUCED_74):: defines_var(X_INTRODUCED_74);
constraint int_eq_reif(X_INTRODUCED_10,2,X_INTRODUCED_75):: defines_var(X_INTRODUCED_75);
constraint int_eq_reif(X_INTRODUCED_11,2,X_INTRODUCED_76):: defines_var(X_INTRODUCED_76);
constraint int_eq_reif(X_INTRODUCED_6,3,X_INTRODUCED_77):: defines_var(X_INTRODUCED_77);
constraint int_eq_reif(X_INTRODUCED_7,3,X_INTRODUCED_78):: defines_var(X_INTRODUCED_78);
constraint int_eq_reif(X_INTRODUCED_8,3,X_INTRODUCED_79):: defines_var(X_INTRODUCED_79);
constraint int_eq_reif(X_INTRODUCED_9,3,X_INTRODUCED_80):: defines_var(X_INTRODUCED_80);
constraint int_eq_reif(X_INTRODUCED_10,3,X_INTRODUCED_81):: defines_var(X_INTRODUCED_81);
constraint int_eq_reif(X_INTRODUCED_11,3,X_INTRODUCED_82):: defines_var(X_INTRODUCED_82);
constraint int_eq_reif(X_INTRODUCED_6,4,X_INTRODUCED_83):: defines_var(X_INTRODUCED_83);
constraint int_eq_reif(X_INTRODUCED_7,4,X_INTRODUCED_84):: defines_var(X_INTRODUCED_84);
constraint int_eq_reif(X_INTRODUCED_8,4,X_INTRODUCED_85):: defines_var(X_INTRODUCED_85);
constraint int_eq_reif(X_INTRODUCED_9,4,X_INTRODUCED_86):: defines_var(X_INTRODUCED_86);
constraint int_eq_reif(X_INTRODUCED_10,4,X_INTRODUCED_87):: defines_var(X_INTRODUCED_87);
constraint int_eq_reif(X_INTRODUCED_11,4,X_INTRODUCED_88):: defines_var(X_INTRODUCED_88);
constraint int_eq_reif(X_INTRODUCED_6,5,X_INTRODUCED_89):: defines_var(X_INTRODUCED_89);
constraint int_eq_reif(X_INTRODUCED_7,5,X_INTRODUCED_90):: defines_var(X_INTRODUCED_90);
constraint int_eq_reif(X_INTRODUCED_8,5,X_INTRODUCED_91):: defines_var(X_INTRODUCED_91);
constraint int_eq_reif(X_INTRODUCED_9,5,X_INTRODUCED_92):: defines_var(X_INTRODUCED_92);
constraint int_eq_reif(X_INTRODUCED_10,5,X_INTRODUCED_93):: defines_var(X_INTRODUCED_93);
constraint int_eq_reif(X_INTRODUCED_11,5,X_INTRODUCED_94):: defines_var(X_INTRODUCED_94);
constraint int_eq_reif(X_INTRODUCED_6,6,X_INTRODUCED_95):: defines_var(X_INTRODUCED_95);
constraint int_eq_reif(X_INTRODUCED_7,6,X_INTRODUCED_96):: defines_var(X_INTRODUCED_96);
constraint int_eq_reif(X_INTRODUCED_8,6,X_INTRODUCED_97):: defines_var(X_INTRODUCED_97);
constraint int_eq_reif(X_INTRODUCED_9,6,X_INTRODUCED_98):: defines_var(X_INTRODUCED_98);
constraint int_eq_reif(X_INTRODUCED_10,6,X_INTRODUCED_99):: defines_var(X_INTRODUCED_99);
constraint int_eq_reif(X_INTRODUCED_11,6,X_INTRODUCED_100):: defines_var(X_INTRODUCED_100);
constraint int_lin_le(X_INTRODUCED_105,[X_INTRODUCED_112,X_INTRODUCED_119],-2);
constraint int_max(X_INTRODUCED_10,X_INTRODUCED_6,X_INTRODUCED_111);
constraint int_max(X_INTRODUCED_11,X_INTRODUCED_111,X_INTRODUCED_112);
constraint int_min(X_INTRODUCED_10,X_INTRODUCED_6,X_INTRODUCED_118);
constraint int_min(X_INTRODUCED_11,X_INTRODUCED_118,X_INTRODUCED_119);
constraint int_lin_le(X_INTRODUCED_105,[X_INTRODUCED_128,X_INTRODUCED_135],-2);
constraint int_max(X_INTRODUCED_7,X_INTRODUCED_6,X_INTRODUCED_127);
constraint int_max(X_INTRODUCED_9,X_INTRODUCED_127,X_INTRODUCED_128);
constraint int_min(X_INTRODUCED_7,X_INTRODUCED_6,X_INTRODUCED_134);
constraint int_min(X_INTRODUCED_9,X_INTRODUCED_134,X_INTRODUCED_135);
constraint int_lin_le(X_INTRODUCED_105,[X_INTRODUCED_144,X_INTRODUCED_151],-2);
constraint int_max(X_INTRODUCED_8,X_INTRODUCED_7,X_INTRODUCED_143);
constraint int_max(X_INTRODUCED_10,X_INTRODUCED_143,X_INTRODUCED_144);
constraint int_min(X_INTRODUCED_8,X_INTRODUCED_7,X_INTRODUCED_150);
constraint int_min(X_INTRODUCED_10,X_INTRODUCED_150,X_INTRODUCED_151);
constraint int_lin_le(X_INTRODUCED_105,[X_INTRODUCED_160,X_INTRODUCED_167],-2);
constraint int_max(X_INTRODUCED_9,X_INTRODUCED_8,X_INTRODUCED_159);
constraint int_max(X_INTRODUCED_11,X_INTRODUCED_159,X_INTRODUCED_160);
constraint int_min(X_INTRODUCED_9,X_INTRODUCED_8,X_INTRODUCED_166);
constraint int_min(X_INTRODUCED_11,X_INTRODUCED_166,X_INTRODUCED_167);
constraint int_lin_eq(X_INTRODUCED_187,[X_INTRODUCED_20,X_INTRODUCED_171,X_INTRODUCED_177,X_INTRODUCED_183],0):: defines_var(X_INTRODUCED_20);
constraint int_lin_eq(X_INTRODUCED_206,[X_INTRODUCED_21,X_INTRODUCED_191,X_INTRODUCED_196,X_INTRODUCED_202],0):: defines_var(X_INTRODUCED_21);
constraint int_lin_eq(X_INTRODUCED_222,[X_INTRODUCED_22,X_INTRODUCED_210,X_INTRODUCED_214,X_INTRODUCED_219],0):: defines_var(X_INTRODUCED_22);
constraint int_lin_eq(X_INTRODUCED_238,[X_INTRODUCED_23,X_INTRODUCED_226,X_INTRODUCED_230,X_INTRODUCED_235],0):: defines_var(X_INTRODUCED_23);
constraint int_lin_le(X_INTRODUCED_240,[X_INTRODUCED_20,X_INTRODUCED_119,X_INTRODUCED_112],3);
constraint int_lin_le(X_INTRODUCED_240,[X_INTRODUCED_21,X_INTRODUCED_135,X_INTRODUCED_128],3);
constraint int_lin_le(X_INTRODUCED_240,[X_INTRODUCED_22,X_INTRODUCED_151,X_INTRODUCED_144],3);
constraint int_lin_le(X_INTRODUCED_240,[X_INTRODUCED_23,X_INTRODUCED_167,X_INTRODUCED_160],3);
constraint int_lin_eq(X_INTRODUCED_250,[cost,X_INTRODUCED_20,X_INTRODUCED_21,X_INTRODUCED_22,X_INTRODUCED_23],42):: defines_var(cost);
constraint int_lin_le(X_INTRODUCED_103,[X_INTRODUCED_0,X_INTRODUCED_5],-1);
constraint int_lin_eq(X_INTRODUCED_257,[penSum,X_INTRODUCED_253,X_INTRODUCED_255],0):: defines_var(penSum);
constraint int_eq_reif(X_INTRODUCED_27,6,X_INTRODUCED_24):: defines_var(X_INTRODUCED_24);
constraint int_eq_reif(X_INTRODUCED_42,1,X_INTRODUCED_25):: defines_var(X_INTRODUCED_25);
constraint int_lin_eq([1,1,-1],[X_INTRODUCED_27,X_INTRODUCED_30,X_INTRODUCED_31],0):: defines_var(X_INTRODUCED_31);
constraint int_lin_eq([1,1,1,-1],[X_INTRODUCED_27,X_INTRODUCED_30,X_INTRODUCED_33,X_INTRODUCED_34],0):: defines_var(X_INTRODUCED_34);
constraint int_lin_eq([1,1,1,1,-1],[X_INTRODUCED_27,X_INTRODUCED_30,X_INTRODUCED_33,X_INTRODUCED_36,X_INTRODUCED_37],0):: defines_var(X_INTRODUCED_37);
constraint int_lin_eq([1,1,1,1,1,-1],[X_INTRODUCED_27,X_INTRODUCED_30,X_INTRODUCED_33,X_INTRODUCED_36,X_INTRODUCED_39,X_INTRODUCED_40],0):: defines_var(X_INTRODUCED_40);
constraint int_lin_eq([1,1,1,1,1,1,-1],[X_INTRODUCED_27,X_INTRODUCED_30,X_INTRODUCED_33,X_INTRODUCED_36,X_INTRODUCED_39,X_INTRODUCED_42,X_INTRODUCED_43],0):: defines_var(X_INTRODUCED_43);
constraint int_lin_eq([1,-1],[X_INTRODUCED_112,X_INTRODUCED_53],-1):: defines_var(X_INTRODUCED_53);
constraint int_lin_eq([1,-1],[X_INTRODUCED_128,X_INTRODUCED_56],-1):: defines_var(X_INTRODUCED_56);
constraint int_lin_eq([1,-1],[X_INTRODUCED_144,X_INTRODUCED_59],-1):: defines_var(X_INTRODUCED_59);
constraint int_lin_eq([1,-1],[X_INTRODUCED_160,X_INTRODUCED_62],-1):: defines_var(X_INTRODUCED_62);
constraint int_eq_reif(X_INTRODUCED_0,1,X_INTRODUCED_65):: defines_var(X_INTRODUCED_65);
constraint int_eq_reif(X_INTRODUCED_0,2,X_INTRODUCED_66):: defines_var(X_INTRODUCED_66);
constraint int_eq_reif(X_INTRODUCED_0,3,X_INTRODUCED_67):: defines_var(X_INTRODUCED_67);
constraint int_eq_reif(X_INTRODUCED_0,4,X_INTRODUCED_68):: defines_var(X_INTRODUCED_68);
constraint int_eq_reif(X_INTRODUCED_0,5,X_INTRODUCED_69):: defines_var(X_INTRODUCED_69);
constraint int_eq_reif(X_INTRODUCED_0,6,X_INTRODUCED_70):: defines_var(X_INTRODUCED_70);
constraint int_eq_reif(X_INTRODUCED_1,1,X_INTRODUCED_71):: defines_var(X_INTRODUCED_71);
constraint int_eq_reif(X_INTRODUCED_1,2,X_INTRODUCED_72):: defines_var(X_INTRODUCED_72);
constraint int_eq_reif(X_INTRODUCED_1,3,X_INTRODUCED_73):: defines_var(X_INTRODUCED_73);
constraint int_eq_reif(X_INTRODUCED_1,4,X_INTRODUCED_74):: defines_var(X_INTRODUCED_74);
constraint int_eq_reif(X_INTRODUCED_1,5,X_INTRODUCED_75):: defines_var(X_INTRODUCED_75);
constraint int_eq_reif(X_INTRODUCED_1,6,X_INTRODUCED_76):: defines_var(X_INTRODUCED_76);
constraint int_eq_reif(X_INTRODUCED_2,1,X_INTRODUCED_77):: defines_var(X_INTRODUCED_77);
constraint int_eq_reif(X_INTRODUCED_2,2,X_INTRODUCED_78):: defines_var(X_INTRODUCED_78);
constraint int_eq_reif(X_INTRODUCED_2,3,X_INTRODUCED_79):: defines_var(X_INTRODUCED_79);
constraint int_eq_reif(X_INTRODUCED_2,4,X_INTRODUCED_80):: defines_var(X_INTRODUCED_80);
constraint int_eq_reif(X_INTRODUCED_2,5,X_INTRODUCED_81):: defines_var(X_INTRODUCED_81);
constraint int_eq_reif(X_INTRODUCED_2,6,X_INTRODUCED_82):: defines_var(X_INTRODUCED_82);
constraint int_eq_reif(X_INTRODUCED_3,1,X_INTRODUCED_83):: defines_var(X_INTRODUCED_83);
constraint int_eq_reif(X_INTRODUCED_3,2,X_INTRODUCED_84):: defines_var(X_INTRODUCED_84);
constraint int_eq_reif(X_INTRODUCED_3,3,X_INTRODUCED_85):: defines_var(X_INTRODUCED_85);
constraint int_eq_reif(X_INTRODUCED_3,4,X_INTRODUCED_86):: defines_var(X_INTRODUCED_86);
constraint int_eq_reif(X_INTRODUCED_3,5,X_INTRODUCED_87):: defines_var(X_INTRODUCED_87);
constraint int_eq_reif(X_INTRODUCED_3,6,X_INTRODUCED_88):: defines_var(X_INTRODUCED_88);
constraint int_eq_reif(X_INTRODUCED_4,1,X_INTRODUCED_89):: defines_var(X_INTRODUCED_89);
constraint int_eq_reif(X_INTRODUCED_4,2,X_INTRODUCED_90):: defines_var(X_INTRODUCED_90);
constraint int_eq_reif(X_INTRODUCED_4,3,X_INTRODUCED_91):: defines_var(X_INTRODUCED_91);
constraint int_eq_reif(X_INTRODUCED_4,4,X_INTRODUCED_92):: defines_var(X_INTRODUCED_92);
constraint int_eq_reif(X_INTRODUCED_4,5,X_INTRODUCED_93):: defines_var(X_INTRODUCED_93);
constraint int_eq_reif(X_INTRODUCED_4,6,X_INTRODUCED_94):: defines_var(X_INTRODUCED_94);
constraint int_eq_reif(X_INTRODUCED_5,1,X_INTRODUCED_95):: defines_var(X_INTRODUCED_95);
constraint int_eq_reif(X_INTRODUCED_5,2,X_INTRODUCED_96):: defines_var(X_INTRODUCED_96);
constraint int_eq_reif(X_INTRODUCED_5,3,X_INTRODUCED_97):: defines_var(X_INTRODUCED_97);
constraint int_eq_reif(X_INTRODUCED_5,4,X_INTRODUCED_98):: defines_var(X_INTRODUCED_98);
constraint int_eq_reif(X_INTRODUCED_5,5,X_INTRODUCED_99):: defines_var(X_INTRODUCED_99);
constraint int_eq_reif(X_INTRODUCED_5,6,X_INTRODUCED_100):: defines_var(X_INTRODUCED_100);
constraint int_lin_le_reif(X_INTRODUCED_103,[X_INTRODUCED_7,X_INTRODUCED_112],0,X_INTRODUCED_168):: defines_var(X_INTRODUCED_168);
constraint int_lin_le_reif(X_INTRODUCED_103,[X_INTRODUCED_119,X_INTRODUCED_7],0,X_INTRODUCED_169):: defines_var(X_INTRODUCED_169);
constraint array_bool_and([X_INTRODUCED_168,X_INTRODUCED_169],X_INTRODUCED_170):: defines_var(X_INTRODUCED_170);
constraint bool2int(X_INTRODUCED_170,X_INTRODUCED_171):: defines_var(X_INTRODUCED_171);
constraint int_lin_le_reif(X_INTRODUCED_103,[X_INTRODUCED_8,X_INTRODUCED_112],0,X_INTRODUCED_174):: defines_var(X_INTRODUCED_174);
constraint int_lin_le_reif(X_INTRODUCED_103,[X_INTRODUCED_119,X_INTRODUCED_8],0,X_INTRODUCED_175):: defines_var(X_INTRODUCED_175);
constraint array_bool_and([X_INTRODUCED_174,X_INTRODUCED_175],X_INTRODUCED_176):: defines_var(X_INTRODUCED_176);
constraint bool2int(X_INTRODUCED_176,X_INTRODUCED_177):: defines_var(X_INTRODUCED_177);
constraint int_lin_le_reif(X_INTRODUCED_103,[X_INTRODUCED_9,X_INTRODUCED_112],0,X_INTRODUCED_180):: defines_var(X_INTRODUCED_180);
constraint int_lin_le_reif(X_INTRODUCED_103,[X_INTRODUCED_119,X_INTRODUCED_9],0,X_INTRODUCED_181):: defines_var(X_INTRODUCED_181);
constraint array_bool_and([X_INTRODUCED_180,X_INTRODUCED_181],X_INTRODUCED_182):: defines_var(X_INTRODUCED_182);
constraint bool2int(X_INTRODUCED_182,X_INTRODUCED_183):: defines_var(X_INTRODUCED_183);
constraint int_lin_le_reif(X_INTRODUCED_103,[X_INTRODUCED_8,X_INTRODUCED_128],0,X_INTRODUCED_188):: defines_var(X_INTRODUCED_188);
constraint int_lin_le_reif(X_INTRODUCED_103,[X_INTRODUCED_135,X_INTRODUCED_8],0,X_INTRODUCED_189):: defines_var(X_INTRODUCED_189);
constraint array_bool_and([X_INTRODUCED_188,X_INTRODUCED_189],X_INTRODUCED_190):: defines_var(X_INTRODUCED_190);
constraint bool2int(X_INTRODUCED_190,X_INTRODUCED_191):: defines_var(X_INTRODUCED_191);
constraint int_lin_le_reif(X_INTRODUCED_103,[X_INTRODUCED_10,X_INTRODUCED_128],0,X_INTRODUCED_193):: defines_var(X_INTRODUCED_193);
constraint int_lin_le_reif(X_INTRODUCED_103,[X_INTRODUCED_135,X_INTRODUCED_10],0,X_INTRODUCED_194):: defines_var(X_INTRODUCED_194);
constraint array_bool_and([X_INTRODUCED_193,X_INTRODUCED_194],X_INTRODUCED_195):: defines_var(X_INTRODUCED_195);
constraint bool2int(X_INTRODUCED_195,X_INTRODUCED_196):: defines_var(X_INTRODUCED_196);
constraint int_lin_le_reif(X_INTRODUCED_103,[X_INTRODUCED_11,X_INTRODUCED_128],0,X_INTRODUCED_199):: defines_var(X_INTRODUCED_199);
constraint int_lin_le_reif(X_INTRODUCED_103,[X_INTRODUCED_135,X_INTRODUCED_11],0,X_INTRODUCED_200):: defines_var(X_INTRODUCED_200);
constraint array_bool_and([X_INTRODUCED_199,X_INTRODUCED_200],X_INTRODUCED_201):: defines_var(X_INTRODUCED_201);
constraint bool2int(X_INTRODUCED_201,X_INTRODUCED_202):: defines_var(X_INTRODUCED_202);
constraint int_lin_le_reif(X_INTRODUCED_103,[X_INTRODUCED_6,X_INTRODUCED_144],0,X_INTRODUCED_207):: defines_var(X_INTRODUCED_207);
constraint int_lin_le_reif(X_INTRODUCED_103,[X_INTRODUCED_151,X_INTRODUCED_6],0,X_INTRODUCED_208):: defines_var(X_INTRODUCED_208);
constraint array_bool_and([X_INTRODUCED_207,X_INTRODUCED_208],X_INTRODUCED_209):: defines_var(X_INTRODUCED_209);
constraint bool2int(X_INTRODUCED_209,X_INTRODUCED_210):: defines_var(X_INTRODUCED_210);
constraint int_lin_le_reif(X_INTRODUCED_103,[X_INTRODUCED_9,X_INTRODUCED_144],0,X_INTRODUCED_211):: defines_var(X_INTRODUCED_211);
constraint int_lin_le_reif(X_INTRODUCED_103,[X_INTRODUCED_151,X_INTRODUCED_9],0,X_INTRODUCED_212):: defines_var(X_INTRODUCED_212);
constraint array_bool_and([X_INTRODUCED_211,X_INTRODUCED_212],X_INTRODUCED_213):: defines_var(X_INTRODUCED_213);
constraint bool2int(X_INTRODUCED_213,X_INTRODUCED_214):: defines_var(X_INTRODUCED_214);
constraint int_lin_le_reif(X_INTRODUCED_103,[X_INTRODUCED_11,X_INTRODUCED_144],0,X_INTRODUCED_216):: defines_var(X_INTRODUCED_216);
constraint int_lin_le_reif(X_INTRODUCED_103,[X_INTRODUCED_151,X_INTRODUCED_11],0,X_INTRODUCED_217):: defines_var(X_INTRODUCED_217);
constraint array_bool_and([X_INTRODUCED_216,X_INTRODUCED_217],X_INTRODUCED_218):: defines_var(X_INTRODUCED_218);
constraint bool2int(X_INTRODUCED_218,X_INTRODUCED_219):: defines_var(X_INTRODUCED_219);
constraint int_lin_le_reif(X_INTRODUCED_103,[X_INTRODUCED_6,X_INTRODUCED_160],0,X_INTRODUCED_223):: defines_var(X_INTRODUCED_223);
constraint int_lin_le_reif(X_INTRODUCED_103,[X_INTRODUCED_167,X_INTRODUCED_6],0,X_INTRODUCED_224):: defines_var(X_INTRODUCED_224);
constraint array_bool_and([X_INTRODUCED_223,X_INTRODUCED_224],X_INTRODUCED_225):: defines_var(X_INTRODUCED_225);
constraint bool2int(X_INTRODUCED_225,X_INTRODUCED_226):: defines_var(X_INTRODUCED_226);
constraint int_lin_le_reif(X_INTRODUCED_103,[X_INTRODUCED_7,X_INTRODUCED_160],0,X_INTRODUCED_227):: defines_var(X_INTRODUCED_227);
constraint int_lin_le_reif(X_INTRODUCED_103,[X_INTRODUCED_167,X_INTRODUCED_7],0,X_INTRODUCED_228):: defines_var(X_INTRODUCED_228);
constraint array_bool_and([X_INTRODUCED_227,X_INTRODUCED_228],X_INTRODUCED_229):: defines_var(X_INTRODUCED_229);
constraint bool2int(X_INTRODUCED_229,X_INTRODUCED_230):: defines_var(X_INTRODUCED_230);
constraint int_lin_le_reif(X_INTRODUCED_103,[X_INTRODUCED_10,X_INTRODUCED_160],0,X_INTRODUCED_232):: defines_var(X_INTRODUCED_232);
constraint int_lin_le_reif(X_INTRODUCED_103,[X_INTRODUCED_167,X_INTRODUCED_10],0,X_INTRODUCED_233):: defines_var(X_INTRODUCED_233);
constraint array_bool_and([X_INTRODUCED_232,X_INTRODUCED_233],X_INTRODUCED_234):: defines_var(X_INTRODUCED_234);
constraint bool2int(X_INTRODUCED_234,X_INTRODUCED_235):: defines_var(X_INTRODUCED_235);
constraint bool_eq_reif(X_INTRODUCED_24,false,X_INTRODUCED_251):: defines_var(X_INTRODUCED_251);
constraint bool_eq_reif(X_INTRODUCED_25,false,X_INTRODUCED_252):: defines_var(X_INTRODUCED_252);
constraint bool2int(X_INTRODUCED_251,X_INTRODUCED_253):: defines_var(X_INTRODUCED_253);
constraint bool2int(X_INTRODUCED_252,X_INTRODUCED_255):: defines_var(X_INTRODUCED_255);
solve :: int_search(s,first_fail,indomain,complete) minimize penSum;
